p cnf 200 1110
-101 2 0
-101 37 0
-101 -15 0
-101 58 0
-101 73 0
-101 -80 0
-101 72 0
-101 -18 0
-101 -74 0
-101 -16 0
101 -2 -37 15 -58 -73 80 -72 18 74 16 0
-102 -22 0
-102 -39 0
-102 30 0
-102 -65 0
-102 -86 0
-102 -25 0
-102 -40 0
-102 -80 0
-102 13 0
-102 -59 0
102 22 39 -30 65 86 25 40 80 -13 59 0
-103 78 0
-103 97 0
-103 -28 0
-103 61 0
-103 66 0
-103 -34 0
-103 41 0
-103 39 0
-103 46 0
-103 1 0
103 -78 -97 28 -61 -66 34 -41 -39 -46 -1 0
-104 87 0
-104 -20 0
-104 88 0
-104 -17 0
-104 1 0
-104 39 0
-104 -42 0
-104 50 0
-104 8 0
-104 -21 0
104 -87 20 -88 17 -1 -39 42 -50 -8 21 0
-105 42 0
-105 -12 0
-105 91 0
-105 -29 0
-105 22 0
-105 44 0
-105 14 0
-105 -54 0
-105 -37 0
-105 -2 0
105 -42 12 -91 29 -22 -44 -14 54 37 2 0
-106 -40 0
-106 -87 0
-106 72 0
-106 7 0
-106 -91 0
-106 34 0
-106 18 0
-106 -20 0
-106 -79 0
-106 -84 0
106 40 87 -72 -7 91 -34 -18 20 79 84 0
-107 -28 0
-107 -20 0
-107 -30 0
-107 42 0
-107 93 0
-107 26 0
-107 -68 0
-107 95 0
-107 34 0
-107 -24 0
107 28 20 30 -42 -93 -26 68 -95 -34 24 0
-108 80 0
-108 95 0
-108 66 0
-108 52 0
-108 74 0
-108 -37 0
-108 6 0
-108 -71 0
-108 -63 0
-108 69 0
108 -80 -95 -66 -52 -74 37 -6 71 63 -69 0
-109 74 0
-109 88 0
-109 -40 0
-109 14 0
-109 38 0
-109 -93 0
-109 -2 0
-109 -56 0
-109 -77 0
-109 -90 0
109 -74 -88 40 -14 -38 93 2 56 77 90 0
-110 30 0
-110 -87 0
-110 81 0
-110 39 0
-110 61 0
-110 2 0
-110 25 0
-110 34 0
-110 41 0
-110 -76 0
110 -30 87 -81 -39 -61 -2 -25 -34 -41 76 0
101 102 103 104 105 106 107 108 109 110 0
-111 -58 0
-111 -33 0
-111 -31 0
-111 -60 0
-111 12 0
-111 40 0
-111 -63 0
-111 78 0
-111 61 0
-111 86 0
111 58 33 31 60 -12 -40 63 -78 -61 -86 0
-112 -61 0
-112 -72 0
-112 17 0
-112 -5 0
-112 -59 0
-112 -28 0
-112 -12 0
-112 -48 0
-112 -9 0
-112 46 0
112 61 72 -17 5 59 28 12 48 9 -46 0
-113 31 0
-113 21 0
-113 -64 0
-113 42 0
-113 48 0
-113 39 0
-113 14 0
-113 -56 0
-113 57 0
-113 8 0
113 -31 -21 64 -42 -48 -39 -14 56 -57 -8 0
-114 20 0
-114 -38 0
-114 58 0
-114 -12 0
-114 -6 0
-114 -81 0
-114 17 0
-114 -39 0
-114 -66 0
-114 -80 0
114 -20 38 -58 12 6 81 -17 39 66 80 0
-115 16 0
-115 98 0
-115 29 0
-115 23 0
-115 19 0
-115 -94 0
-115 11 0
-115 36 0
-115 89 0
-115 -7 0
115 -16 -98 -29 -23 -19 94 -11 -36 -89 7 0
-116 39 0
-116 53 0
-116 -71 0
-116 -10 0
-116 -12 0
-116 -59 0
-116 13 0
-116 -55 0
-116 8 0
-116 -68 0
116 -39 -53 71 10 12 59 -13 55 -8 68 0
-117 -86 0
-117 -15 0
-117 -8 0
-117 22 0
-117 72 0
-117 -83 0
-117 62 0
-117 41 0
-117 77 0
-117 -58 0
117 86 15 8 -22 -72 83 -62 -41 -77 58 0
-118 -90 0
-118 -60 0
-118 59 0
-118 42 0
-118 -29 0
-118 -100 0
-118 92 0
-118 12 0
-118 -24 0
-118 15 0
118 90 60 -59 -42 29 100 -92 -12 24 -15 0
-119 -45 0
-119 -2 0
-119 33 0
-119 98 0
-119 -87 0
-119 71 0
-119 60 0
-119 -70 0
-119 13 0
-119 -39 0
119 45 2 -33 -98 87 -71 -60 70 -13 39 0
-120 43 0
-120 -2 0
-120 -11 0
-120 -19 0
-120 22 0
-120 99 0
-120 -62 0
-120 98 0
-120 44 0
-120 7 0
120 -43 2 11 19 -22 -99 62 -98 -44 -7 0
111 112 113 114 115 116 117 118 119 120 0
-121 36 0
-121 -41 0
-121 5 0
-121 40 0
-121 78 0
-121 -7 0
-121 62 0
-121 -65 0
-121 -45 0
-121 -10 0
121 -36 41 -5 -40 -78 7 -62 65 45 10 0
-122 -69 0
-122 40 0
-122 -76 0
-122 -28 0
-122 88 0
-122 58 0
-122 -54 0
-122 19 0
-122 12 0
-122 16 0
122 69 -40 76 28 -88 -58 54 -19 -12 -16 0
-123 -70 0
-123 -27 0
-123 -23 0
-123 67 0
-123 -61 0
-123 98 0
-123 -24 0
-123 -43 0
-123 -95 0
-123 66 0
123 70 27 23 -67 61 -98 24 43 95 -66 0
-124 -58 0
-124 -91 0
-124 36 0
-124 -26 0
-124 73 0
-124 89 0
-124 12 0
-124 45 0
-124 62 0
-124 16 0
124 58 91 -36 26 -73 -89 -12 -45 -62 -16 0
-125 -82 0
-125 -45 0
-125 70 0
-125 -65 0
-125 -20 0
-125 96 0
-125 -27 0
-125 100 0
-125 -33 0
-125 66 0
125 82 45 -70 65 20 -96 27 -100 33 -66 0
-126 -29 0
-126 21 0
-126 94 0
-126 -45 0
-126 -66 0
-126 -27 0
-126 -9 0
-126 -55 0
-126 -22 0
-126 -14 0
126 29 -21 -94 45 66 27 9 55 22 14 0
-127 76 0
-127 71 0
-127 -83 0
-127 90 0
-127 87 0
-127 75 0
-127 -62 0
-127 -97 0
-127 -53 0
-127 -23 0
127 -76 -71 83 -90 -87 -75 62 97 53 23 0
-128 -23 0
-128 -9 0
-128 18 0
-128 32 0
-128 92 0
-128 -47 0
-128 3 0
-128 61 0
-128 71 0
-128 57 0
128 23 9 -18 -32 -92 47 -3 -61 -71 -57 0
-129 -32 0
-129 -41 0
-129 -39 0
-129 -36 0
-129 -60 0
-129 83 0
-129 22 0
-129 -1 0
-129 -64 0
-129 68 0
129 32 41 39 36 60 -83 -22 1 64 -68 0
-130 -65 0
-130 -76 0
-130 5 0
-130 16 0
-130 -21 0
-130 -4 0
-130 49 0
-130 -12 0
-130 56 0
-130 35 0
130 65 76 -5 -16 21 4 -49 12 -56 -35 0
121 122 123 124 125 126 127 128 129 130 0
-131 72 0
-131 -79 0
-131 24 0
-131 11 0
-131 -21 0
-131 62 0
-131 85 0
-131 2 0
-131 -100 0
-131 41 0
131 -72 79 -24 -11 21 -62 -85 -2 100 -41 0
-132 -9 0
-132 -88 0
-132 20 0
-132 -26 0
-132 68 0
-132 -80 0
-132 10 0
-132 -53 0
-132 -40 0
-132 21 0
132 9 88 -20 26 -68 80 -10 53 40 -21 0
-133 69 0
-133 -99 0
-133 -58 0
-133 48 0
-133 22 0
-133 -44 0
-133 -79 0
-133 -7 0
-133 56 0
-133 -45 0
133 -69 99 58 -48 -22 44 79 7 -56 45 0
-134 16 0
-134 -75 0
-134 -20 0
-134 -26 0
-134 -58 0
-134 62 0
-134 -86 0
-134 -32 0
-134 41 0
-134 -77 0
134 -16 75 20 26 58 -62 86 32 -41 77 0
-135 -10 0
-135 -55 0
-135 -53 0
-135 35 0
-135 20 0
-135 25 0
-135 -68 0
-135 3 0
-135 16 0
-135 -5 0
135 10 55 53 -35 -20 -25 68 -3 -16 5 0
-136 76 0
-136 86 0
-136 17 0
-136 48 0
-136 -7 0
-136 -38 0
-136 97 0
-136 3 0
-136 -46 0
-136 19 0
136 -76 -86 -17 -48 7 38 -97 -3 46 -19 0
-137 51 0
-137 38 0
-137 -84 0
-137 41 0
-137 100 0
-137 -6 0
-137 -64 0
-137 -4 0
-137 -30 0
-137 23 0
137 -51 -38 84 -41 -100 6 64 4 30 -23 0
-138 -31 0
-138 -42 0
-138 -39 0
-138 -46 0
-138 -66 0
-138 -4 0
-138 -94 0
-138 -60 0
-138 40 0
-138 -77 0
138 31 42 39 46 66 4 94 60 -40 77 0
-139 96 0
-139 -12 0
-139 2 0
-139 69 0
-139 45 0
-139 9 0
-139 81 0
-139 -78 0
-139 -68 0
-139 -53 0
139 -96 12 -2 -69 -45 -9 -81 78 68 53 0
-140 41 0
-140 -22 0
-140 -13 0
-140 -15 0
-140 -29 0
-140 14 0
-140 -74 0
-140 5 0
-140 -48 0
-140 -12 0
140 -41 22 13 15 29 -14 74 -5 48 12 0
131 132 133 134 135 136 137 138 139 140 0
-141 -49 0
-141 92 0
-141 -62 0
-141 -39 0
-141 -100 0
-141 -98 0
-141 90 0
-141 -88 0
-141 -47 0
-141 57 0
141 49 -92 62 39 100 98 -90 88 47 -57 0
-142 -93 0
-142 -90 0
-142 -13 0
-142 35 0
-142 -48 0
-142 86 0
-142 62 0
-142 43 0
-142 -15 0
-142 -58 0
142 93 90 13 -35 48 -86 -62 -43 15 58 0
-143 79 0
-143 -96 0
-143 8 0
-143 -61 0
-143 -23 0
-143 -92 0
-143 88 0
-143 -13 0
-143 -30 0
-143 37 0
143 -79 96 -8 61 23 92 -88 13 30 -37 0
-144 -63 0
-144 -52 0
-144 -6 0
-144 27 0
-144 -84 0
-144 -85 0
-144 -33 0
-144 -23 0
-144 22 0
-144 -53 0
144 63 52 6 -27 84 85 33 23 -22 53 0
-145 -4 0
-145 41 0
-145 -27 0
-145 -26 0
-145 -70 0
-145 -2 0
-145 56 0
-145 65 0
-145 -69 0
-145 30 0
145 4 -41 27 26 70 2 -56 -65 69 -30 0
-146 79 0
-146 -29 0
-146 -51 0
-146 -59 0
-146 32 0
-146 77 0
-146 -1 0
-146 -76 0
-146 72 0
-146 86 0
146 -79 29 51 59 -32 -77 1 76 -72 -86 0
-147 -91 0
-147 6 0
-147 40 0
-147 46 0
-147 -50 0
-147 62 0
-147 38 0
-147 -70 0
-147 -88 0
-147 60 0
147 91 -6 -40 -46 50 -62 -38 70 88 -60 0
-148 -34 0
-148 80 0
-148 -16 0
-148 -73 0
-148 50 0
-148 45 0
-148 -6 0
-148 -85 0
-148 66 0
-148 -39 0
148 34 -80 16 73 -50 -45 6 85 -66 39 0
-149 -34 0
-149 65 0
-149 77 0
-149 -99 0
-149 -30 0
-149 -38 0
-149 -89 0
-149 12 0
-149 -67 0
-149 -88 0
149 34 -65 -77 99 30 38 89 -12 67 88 0
-150 -30 0
-150 21 0
-150 63 0
-150 40 0
-150 91 0
-150 -15 0
-150 65 0
-150 -13 0
-150 -94 0
-150 -77 0
150 30 -21 -63 -40 -91 15 -65 13 94 77 0
141 142 143 144 145 146 147 148 149 150 0
-151 22 0
-151 70 0
-151 -49 0
-151 90 0
-151 -50 0
-151 -77 0
-151 66 0
-151 -21 0
-151 -37 0
-151 -32 0
151 -22 -70 49 -90 50 77 -66 21 37 32 0
-152 -71 0
-152 46 0
-152 54 0
-152 -31 0
-152 -18 0
-152 37 0
-152 -26 0
-152 51 0
-152 75 0
-152 40 0
152 71 -46 -54 31 18 -37 26 -51 -75 -40 0
-153 -100 0
-153 31 0
-153 -68 0
-153 -49 0
-153 -5 0
-153 -66 0
-153 26 0
-153 -21 0
-153 -92 0
-153 -50 0
153 100 -31 68 49 5 66 -26 21 92 50 0
-154 82 0
-154 58 0
-154 -27 0
-154 -29 0
-154 -65 0
-154 -13 0
-154 -35 0
-154 -83 0
-154 -100 0
-154 -39 0
154 -82 -58 27 29 65 13 35 83 100 39 0
-155 -99 0
-155 54 0
-155 96 0
-155 44 0
-155 29 0
-155 64 0
-155 -18 0
-155 91 0
-155 -87 0
-155 80 0
155 99 -54 -96 -44 -29 -64 18 -91 87 -80 0
-156 -11 0
-156 -15 0
-156 70 0
-156 -81 0
-156 -69 0
-156 -88 0
-156 -74 0
-156 -21 0
-156 72 0
-156 -46 0
156 11 15 -70 81 69 88 74 21 -72 46 0
-157 -8 0
-157 71 0
-157 1 0
-157 92 0
-157 -63 0
-157 25 0
-157 90 0
-157 78 0
-157 -99 0
-157 14 0
157 8 -71 -1 -92 63 -25 -90 -78 99 -14 0
-158 64 0
-158 -24 0
-158 16 0
-158 -43 0
-158 -26 0
-158 -60 0
-158 7 0
-158 70 0
-158 20 0
-158 47 0
158 -64 24 -16 43 26 60 -7 -70 -20 -47 0
-159 2 0
-159 -50 0
-159 77 0
-159 19 0
-159 -56 0
-159 16 0
-159 -91 0
-159 -62 0
-159 51 0
-159 73 0
159 -2 50 -77 -19 56 -16 91 62 -51 -73 0
-160 -75 0
-160 -85 0
-160 -100 0
-160 80 0
-160 -94 0
-160 73 0
-160 82 0
-160 24 0
-160 4 0
-160 -98 0
160 75 85 100 -80 94 -73 -82 -24 -4 98 0
151 152 153 154 155 156 157 158 159 160 0
-161 -2 0
-161 -36 0
-161 -73 0
-161 -26 0
-161 -48 0
-161 -66 0
-161 22 0
-161 83 0
-161 -58 0
-161 10 0
161 2 36 73 26 48 66 -22 -83 58 -10 0
-162 76 0
-162 92 0
-162 -19 0
-162 -65 0
-162 -27 0
-162 -93 0
-162 -48 0
-162 17 0
-162 33 0
-162 14 0
162 -76 -92 19 65 27 93 48 -17 -33 -14 0
-163 48 0
-163 65 0
-163 -63 0
-163 50 0
-163 -52 0
-163 59 0
-163 -22 0
-163 -57 0
-163 -71 0
-163 10 0
163 -48 -65 63 -50 52 -59 22 57 71 -10 0
-164 -10 0
-164 46 0
-164 -26 0
-164 -27 0
-164 22 0
-164 -45 0
-164 -69 0
-164 -44 0
-164 70 0
-164 77 0
164 10 -46 26 27 -22 45 69 44 -70 -77 0
-165 44 0
-165 -56 0
-165 91 0
-165 63 0
-165 54 0
-165 -24 0
-165 -94 0
-165 -8 0
-165 -65 0
-165 32 0
165 -44 56 -91 -63 -54 24 94 8 65 -32 0
-166 17 0
-166 -78 0
-166 -60 0
-166 70 0
-166 -55 0
-166 52 0
-166 -27 0
-166 -25 0
-166 36 0
-166 57 0
166 -17 78 60 -70 55 -52 27 25 -36 -57 0
-167 -2 0
-167 38 0
-167 58 0
-167 80 0
-167 5 0
-167 -50 0
-167 -13 0
-167 -30 0
-167 -84 0
-167 66 0
167 2 -38 -58 -80 -5 50 13 30 84 -66 0
-168 59 0
-168 -34 0
-168 -24 0
-168 -38 0
-168 -88 0
-168 -39 0
-168 -5 0
-168 46 0
-168 -82 0
-168 -93 0
168 -59 34 24 38 88 39 5 -46 82 93 0
-169 58 0
-169 47 0
-169 -41 0
-169 -65 0
-169 91 0
-169 78 0
-169 -9 0
-169 -7 0
-169 89 0
-169 59 0
169 -58 -47 41 65 -91 -78 9 7 -89 -59 0
-170 51 0
-170 -86 0
-170 -31 0
-170 11 0
-170 63 0
-170 -24 0
-170 71 0
-170 -94 0
-170 -96 0
-170 -9 0
170 -51 86 31 -11 -63 24 -71 94 96 9 0
161 162 163 164 165 166 167 168 169 170 0
-171 -96 0
-171 -36 0
-171 -25 0
-171 29 0
-171 -90 0
-171 -35 0
-171 12 0
-171 16 0
-171 -38 0
-171 17 0
171 96 36 25 -29 90 35 -12 -16 38 -17 0
-172 82 0
-172 -78 0
-172 -28 0
-172 -33 0
-172 57 0
-172 -88 0
-172 -84 0
-172 -44 0
-172 -97 0
-172 27 0
172 -82 78 28 33 -57 88 84 44 97 -27 0
-173 7 0
-173 6 0
-173 84 0
-173 -57 0
-173 24 0
-173 25 0
-173 -98 0
-173 63 0
-173 31 0
-173 -59 0
173 -7 -6 -84 57 -24 -25 98 -63 -31 59 0
-174 -73 0
-174 96 0
-174 -89 0
-174 -91 0
-174 -90 0
-174 51 0
-174 -33 0
-174 28 0
-174 6 0
-174 97 0
174 73 -96 89 91 90 -51 33 -28 -6 -97 0
-175 -13 0
-175 8 0
-175 -42 0
-175 40 0
-175 -94 0
-175 58 0
-175 -10 0
-175 -37 0
-175 63 0
-175 28 0
175 13 -8 42 -40 94 -58 10 37 -63 -28 0
-176 -61 0
-176 -78 0
-176 70 0
-176 -89 0
-176 -2 0
-176 64 0
-176 56 0
-176 19 0
-176 -52 0
-176 -10 0
176 61 78 -70 89 2 -64 -56 -19 52 10 0
-177 -1 0
-177 66 0
-177 27 0
-177 75 0
-177 -33 0
-177 59 0
-177 29 0
-177 12 0
-177 -96 0
-177 85 0
177 1 -66 -27 -75 33 -59 -29 -12 96 -85 0
-178 53 0
-178 -51 0
-178 94 0
-178 -7 0
-178 -26 0
-178 17 0
-178 56 0
-178 -71 0
-178 49 0
-178 32 0
178 -53 51 -94 7 26 -17 -56 71 -49 -32 0
-179 68 0
-179 -100 0
-179 -38 0
-179 -96 0
-179 12 0
-179 72 0
-179 2 0
-179 93 0
-179 48 0
-179 -26 0
179 -68 100 38 96 -12 -72 -2 -93 -48 26 0
-180 -39 0
-180 24 0
-180 10 0
-180 53 0
-180 -34 0
-180 85 0
-180 76 0
-180 -43 0
-180 44 0
-180 79 0
180 39 -24 -10 -53 34 -85 -76 43 -44 -79 0
171 172 173 174 175 176 177 178 179 180 0
-181 46 0
-181 -93 0
-181 -52 0
-181 -27 0
-181 77 0
-181 -44 0
-181 100 0
-181 50 0
-181 -11 0
-181 45 0
181 -46 93 52 27 -77 44 -100 -50 11 -45 0
-182 99 0
-182 -97 0
-182 75 0
-182 30 0
-182 72 0
-182 5 0
-182 65 0
-182 -31 0
-182 46 0
-182 63 0
182 -99 97 -75 -30 -72 -5 -65 31 -46 -63 0
-183 75 0
-183 17 0
-183 96 0
-183 -58 0
-183 47 0
-183 -32 0
-183 -68 0
-183 -94 0
-183 37 0
-183 21 0
183 -75 -17 -96 58 -47 32 68 94 -37 -21 0
-184 -23 0
-184 55 0
-184 -47 0
-184 49 0
-184 83 0
-184 39 0
-184 -92 0
-184 -4 0
-184 51 0
-184 -15 0
184 23 -55 47 -49 -83 -39 92 4 -51 15 0
-185 40 0
-185 -37 0
-185 -59 0
-185 -86 0
-185 54 0
-185 48 0
-185 -92 0
-185 60 0
-185 -20 0
-185 -27 0
185 -40 37 59 86 -54 -48 92 -60 20 27 0
-186 -95 0
-186 -84 0
-186 -97 0
-186 23 0
-186 -75 0
-186 98 0
-186 -89 0
-186 -73 0
-186 46 0
-186 -65 0
186 95 84 97 -23 75 -98 89 73 -46 65 0
-187 1 0
-187 30 0
-187 60 0
-187 21 0
-187 -20 0
-187 -37 0
-187 -55 0
-187 78 0
-187 -90 0
-187 32 0
187 -1 -30 -60 -21 20 37 55 -78 90 -32 0
-188 -87 0
-188 -58 0
-188 -52 0
-188 -14 0
-188 -99 0
-188 -34 0
-188 -81 0
-188 46 0
-188 70 0
-188 -17 0
188 87 58 52 14 99 34 81 -46 -70 17 0
-189 18 0
-189 3 0
-189 58 0
-189 -44 0
-189 -35 0
-189 -89 0
-189 -48 0
-189 -72 0
-189 -99 0
-189 -74 0
189 -18 -3 -58 44 35 89 48 72 99 74 0
-190 29 0
-190 -6 0
-190 3 0
-190 -58 0
-190 -78 0
-190 54 0
-190 -91 0
-190 21 0
-190 -40 0
-190 62 0
190 -29 6 -3 58 78 -54 91 -21 40 -62 0
181 182 183 184 185 186 187 188 189 190 0
-191 52 0
-191 64 0
-191 89 0
-191 38 0
-191 -83 0
-191 -53 0
-191 -43 0
-191 -45 0
-191 -50 0
-191 82 0
191 -52 -64 -89 -38 83 53 43 45 50 -82 0
-192 -4 0
-192 -68 0
-192 -66 0
-192 17 0
-192 -1 0
-192 -85 0
-192 -34 0
-192 -89 0
-192 35 0
-192 29 0
192 4 68 66 -17 1 85 34 89 -35 -29 0
-193 92 0
-193 -84 0
-193 87 0
-193 35 0
-193 -6 0
-193 -54 0
-193 66 0
-193 46 0
-193 90 0
-193 -12 0
193 -92 84 -87 -35 6 54 -66 -46 -90 12 0
-194 -82 0
-194 47 0
-194 -54 0
-194 33 0
-194 -19 0
-194 79 0
-194 -48 0
-194 -68 0
-194 -43 0
-194 37 0
194 82 -47 54 -33 19 -79 48 68 43 -37 0
-195 -47 0
-195 46 0
-195 34 0
-195 14 0
-195 -3 0
-195 -80 0
-195 1 0
-195 43 0
-195 68 0
-195 -79 0
195 47 -46 -34 -14 3 80 -1 -43 -68 79 0
-196 -62 0
-196 -34 0
-196 39 0
-196 -99 0
-196 74 0
-196 72 0
-196 -55 0
-196 -48 0
-196 -89 0
-196 -3 0
196 62 34 -39 99 -74 -72 55 48 89 3 0
-197 81 0
-197 -7 0
-197 -29 0
-197 -73 0
-197 96 0
-197 -89 0
-197 67 0
-197 95 0
-197 77 0
-197 2 0
197 -81 7 29 73 -96 89 -67 -95 -77 -2 0
-198 -84 0
-198 -99 0
-198 91 0
-198 -63 0
-198 33 0
-198 62 0
-198 -27 0
-198 20 0
-198 -79 0
-198 22 0
198 84 99 -91 63 -33 -62 27 -20 79 -22 0
-199 65 0
-199 -62 0
-199 -66 0
-199 5 0
-199 53 0
-199 -45 0
-199 -22 0
-199 87 0
-199 -46 0
-199 -51 0
199 -65 62 66 -5 -53 45 22 -87 46 51 0
-200 29 0
-200 -47 0
-200 -18 0
-200 75 0
-200 57 0
-200 98 0
-200 -60 0
-200 78 0
-200 -8 0
-200 -42 0
200 -29 47 18 -75 -57 -98 60 -78 8 42 0
191 192 193 194 195 196 197 198 199 200 0
